ColorNames = 
	{"red", "white", "blue", "green"}; 
	
Countries = 
	{"Belgium",
	 "Denmark",
	 "France",
	 "Germany",
	 "Luxembourg",
	 "Netherlands"
};	 

Borders =
{<"Belgium", "France">,
 <"Belgium", "Germany">, 
 <"Belgium", "Luxembourg">, 
 <"Belgium", "Netherlands">, 
 <"Denmark", "Germany">, 
 <"France", "Luxembourg">, 
 <"Germany", "Luxembourg">, 
 <"Germany", "Netherlands">
};  